problems/csplib-prob056/sonet-models/noch/O2/minion/model_4_1-s1ring14-solution000001.solution
language Essence 1.3

letting network be mset({}, {1, 2, 4, 6}, {1, 3, 6, 7}, {1, 3, 6, 7})
$ Here is a simple "visualisation" for the value above.
$ 
$ 1 2 4 6
$ 1 3 6 7
$ 1 3 6 7

